solution status: optimal solution found
objective value:                                    0
$_284_y                                            15 	(obj:0)
$_284_z                                            10 	(obj:0)
$_179_y                                            12 	(obj:0)
$_179_z                                            12 	(obj:0)
$_215_y                                            14 	(obj:0)
$_215_z                                            11 	(obj:0)
$_257_y                                            15 	(obj:0)
$_257_z                                            13 	(obj:0)
$_234_y                                            16 	(obj:0)
$_234_z                                            12 	(obj:0)
$_143_y                                            12 	(obj:0)
$_143_z                                            13 	(obj:0)
$_275_y                                            15 	(obj:0)
$_275_z                                            11 	(obj:0)
$_175_y                                            17 	(obj:0)
$_175_z                                            15 	(obj:0)
$_152_y                                            16 	(obj:0)
$_152_z                                            16 	(obj:0)
$_174_y                                            13 	(obj:0)
$_174_z                                            11 	(obj:0)
$_216_y                                            16 	(obj:0)
$_216_z                                            15 	(obj:0)
$_66_y                                              9 	(obj:0)
$_66_z                                              5 	(obj:0)
$_220_y                                            12 	(obj:0)
$_220_z                                            11 	(obj:0)
$_261_y                                            12 	(obj:0)
$_261_z                                             8 	(obj:0)
$_256_y                                            11 	(obj:0)
$_256_z                                             9 	(obj:0)
$_193_y                                            15 	(obj:0)
$_193_z                                            15 	(obj:0)
$_136_y                                            11 	(obj:0)
$_136_z                                             6 	(obj:0)
$_137_y                                            13 	(obj:0)
$_137_z                                            12 	(obj:0)
$_142_y                                            11 	(obj:0)
$_142_z                                             8 	(obj:0)
$_44_y                                             10 	(obj:0)
$_44_z                                             10 	(obj:0)
